
(set-logic ALL) 

(declare-datatype MyList ((Nil) (Cons (head Real) (tail MyList)) )) 
(declare-fun l0 () MyList) 
(declare-fun l1 () MyList) 
(declare-fun l2 () MyList) 
(declare-fun l3 () MyList) 
(declare-fun i0 () Real) 
(declare-fun i1 () Real) 
(assert (or (is-Nil Nil) (= l0 l3) (is-Nil Nil)) )
(assert (not (= l3 Nil)) )
(assert (= l1 Nil) )
(assert (is-Cons Nil) )
(assert (not (= l3 Nil)) )
(assert (= l0 Nil) )
(assert (and (= l0 Nil) (is-Cons l0) (is-Nil l2) (is-Nil Nil)) )
(assert (is-Nil l0) )
(check-sat)
